% The following data set reflects two totally independent jobs.
% Since they can be done in parallel, it is the longer of the two which sets minimum end time
% In this case it should be 7 time units (repairJoint).

JOB = {washVegetable, repairJoint};
TASK = {openTab, tumbleVeggieUnderWater, closeTab, getScrewdriver, tightenLooseScrew, returnScrewDriver};
task_duration = [|
	1, 3, 1, 0, 0, 0 |
	0, 0, 0, 2, 4, 1 
|]